\ Model GLayout_copy
\ LP format - for model browsing. Use MPS format to capture full model detail.
Minimize
 
Subject To
 SnapHToGrid(2): - H[2] + 8 HG[2] = 0
Bounds
 H[2] = 250
 HG[2] free
Generals
 H[2] HG[2]
End
